c File: instances/30_0.40_2.col
c
c Description: Random graph of size 30 vertices and P(0.39999999999999997) of edges between any two vertices.
p col 30 435
e 1 4
e 1 5
e 1 9
e 1 13
e 1 14
e 1 15
e 1 16
e 1 21
e 1 22
e 1 27
e 1 28
e 1 29
e 1 30
e 2 5
e 2 6
e 2 9
e 2 14
e 2 20
e 2 21
e 3 5
e 3 6
e 3 7
e 3 10
e 3 11
e 3 12
e 3 15
e 3 16
e 3 21
e 3 29
e 4 5
e 4 9
e 4 12
e 4 13
e 4 15
e 4 19
e 4 20
e 4 21
e 4 23
e 4 24
e 4 25
e 4 28
e 4 29
e 5 8
e 5 13
e 5 16
e 5 19
e 5 23
e 5 29
e 5 30
e 6 8
e 6 11
e 6 20
e 6 21
e 6 22
e 6 25
e 6 26
e 7 14
e 7 15
e 7 17
e 7 20
e 7 23
e 7 24
e 7 26
e 7 27
e 7 28
e 7 29
e 8 10
e 8 11
e 8 12
e 8 15
e 8 16
e 8 18
e 8 29
e 9 10
e 9 11
e 9 12
e 9 13
e 9 14
e 9 15
e 9 16
e 9 23
e 9 28
e 10 14
e 10 15
e 10 17
e 10 18
e 10 19
e 10 20
e 10 21
e 10 23
e 10 28
e 10 29
e 10 30
e 11 12
e 11 14
e 11 17
e 11 19
e 11 20
e 11 23
e 11 26
e 11 27
e 12 15
e 12 18
e 12 19
e 12 22
e 12 25
e 12 26
e 12 28
e 12 29
e 13 14
e 13 16
e 13 19
e 13 20
e 13 23
e 13 25
e 14 18
e 15 20
e 15 21
e 15 22
e 15 27
e 15 29
e 16 18
e 16 24
e 16 26
e 16 28
e 16 29
e 17 28
e 17 29
e 17 30
e 18 19
e 18 20
e 18 21
e 18 23
e 18 24
e 18 28
e 18 29
e 19 21
e 19 22
e 19 23
e 19 25
e 19 26
e 19 27
e 20 23
e 20 28
e 21 24
e 21 25
e 22 23
e 22 26
e 22 27
e 22 29
e 22 30
e 23 27
e 23 28
e 23 30
e 24 26
e 24 27
e 24 30
e 25 27
e 25 28
e 25 30
e 26 27
e 26 29
e 27 29
e 27 30
e 28 29
e 29 30